p cnf 50 20
x -1 -3 7 -8 -10 13 15 16 -18 19 22 -27 -30 -31 34 -36 -37 -38 40 -41 43 -45 46 -48 0
x 1 -2 -3 7 -8 10 14 15 16 -18 -19 -22 -23 28 32 39 41 -44 -46 -48 -49 -50 0
x 2 4 -7 -9 11 14 16 -18 -21 -22 -28 33 -34 36 -37 41 48 0
x 1 -2 3 -5 -6 7 8 -9 10 13 14 -15 -16 17 18 -20 24 25 27 28 -32 -33 35 -37 39 41 43 45 50 0
x -1 -2 6 9 -11 12 -13 -15 17 -19 20 -22 -23 26 -27 28 31 -33 37 -38 39 -40 42 -44 -45 -49 -50 0
x 2 -4 5 -8 -9 11 14 -15 -16 -17 -19 -20 -22 -23 -24 32 34 41 44 46 47 0
x 1 3 4 -9 -10 12 15 17 18 -19 -23 -24 25 26 -27 33 34 -36 38 39 42 -47 -48 50 0
x -2 3 -5 6 7 -8 9 12 -17 19 -20 -23 27 28 -29 -32 33 -34 36 -37 38 -39 40 -42 -43 -45 -46 0
x 4 -5 7 -9 -10 13 16 -17 -18 -20 -22 -23 -24 -25 27 -29 -32 -34 -35 37 43 46 -47 -49 50 0
x 5 7 -8 -10 11 -13 16 19 -20 -22 -24 -25 28 -29 30 -32 -35 37 -39 -40 41 42 -45 47 48 0
x 2 3 -5 -7 9 -11 -14 -15 19 21 -23 -25 -27 29 30 32 35 39 40 43 -44 47 50 0
x -1 2 -5 -6 9 10 12 13 16 -17 -21 22 23 -27 -29 -31 -40 -41 -42 44 46 47 -48 -49 50 0
x 1 2 4 -5 -10 11 -22 -25 26 -28 -30 -32 33 36 -37 -38 39 43 -45 -47 49 0
x -1 3 -6 11 12 -14 -18 20 -22 -24 -25 -27 30 -32 -38 -39 -42 -45 -46 47 -48 0
x 3 -4 -5 -8 -10 13 -15 -16 -17 -18 19 -20 -22 -27 -28 -29 31 -32 -33 34 35 38 -39 40 42 -46 48 0
x -5 6 -12 18 20 -21 22 23 -24 25 -26 -29 30 31 32 33 34 -35 -36 -37 38 -39 -41 -42 -45 -46 47 -48 -49 0
x 1 -2 -3 -4 -9 10 -11 13 -15 16 -18 -20 -22 28 32 33 34 -35 -36 37 39 -42 -45 46 -47 -48 49 0
x -2 -7 9 10 11 12 -15 17 18 -20 21 22 -24 -25 26 29 31 32 -38 39 40 42 -44 -45 -48 -49 0
x 2 -4 6 -7 8 -9 -10 13 -14 16 18 21 22 -23 24 25 -26 -27 -30 -34 -39 -40 46 -50 0
x 1 2 -4 5 -6 -8 -9 -12 -15 19 -20 -29 32 -33 -36 37 40 -41 42 45 -46 47 -48 0
g -15